# AFM/Nanoindentation simulation of asphalt and aggregate
# by ZHAODU @ Tongji University

echo				screen
log					log.indentation.txt
# ----- Variables ---------
variable			fn string indentation        		    # filename
variable			data index system.data				    # data file of the subs
variable			cutoff equal 12.5
variable			miniacc	equal 1.0e-8
variable			N equal atoms
variable			E equal pe
variable			dt equal 1
variable			T equal 298.15
# ----- Initialization --------
dimension			3
units				real
boundary			p p p
atom_style			full
# ----- Atom and forcefield information -------
pair_style			lj/class2/coul/long ${cutoff}
bond_style			class2
angle_style			class2
dihedral_style		class2
improper_style		class2
kspace_style		ewald 1.0e-6
read_data			${data} 

region				lower block INF INF INF INF -2 10 units box
group				lower region lower
group            	sub type 1:9
group				cut type 10
group				subm subtract sub lower	

neighbor			2.0 bin 
neigh_modify		every 1 delay 0 check yes exclude group cut cut
# ----- Model Initialization ------------------

velocity          	cut set 0.0 0.0 0.0 units box
velocity          	lower set 0.0 0.0 0.0 units box
velocity          	subm create ${T} 4928459 rot yes dist gaussian units box
compute          	Tsubm subm temp
fix					1 cut rigid single
# ----- Minimize -------------------------------
timestep			0.1
thermo_style		custom step etotal pe ke c_Tsubm
thermo				50
minimize			${miniacc} ${miniacc} 10000 1000000
print				"Minimized:${N},Energy is ${E} "
write_restart		restart.${fn}.minimize01
# ---- Properties caculation -----------------------
compute           	1 all pe/atom
compute           	2 all ke/atom
# ---- Move of the indenter ------------------------
# move the indenter to the edge
# fix
run					0
fix					2 lower setforce 0.0 0.0 0.0
fix					3 cut setforce 0.0 0.0 0.0
fix 				4 subm temp/rescale 50 298.15 298.15 0.1 1
# output
variable 			p0 equal step
variable 			p1 equal f_3[1]
variable 			p2 equal f_3[2]
variable 			p3 equal f_3[3]
variable 			p4 equal etotal
variable 			p5 equal pe
variable 			p6 equal ke
# loop for move down and minimize
reset_timestep 		0
variable 			n loop 400
label				myfirstloop
print				"-------------loop $n-----------------------"
fix 				6 cut move linear 0.0 0.0 -0.1 units box
fix					def1 all print 1 "${p0} ${p1} ${p2} ${p3} " append ${fn}.down.txt screen no
timestep 			1
thermo				1
thermo_style		custom step temp c_Tsubm etotal pe ke f_3[1] f_3[2] f_3[3]
dump				1 all custom 1 ${fn}.down.$n.lammpstrj id type x y z fx fy fz c_1 c_2
run 				1
unfix				def1
undump				1
unfix				6

timestep			1
thermo_style		custom step etotal pe ke c_Tsubm
thermo				10
minimize			${miniacc} ${miniacc} 10000 1000000

next 				n
jump				SELF myfirstloop
write_restart       restart.${fn}.movedown
# loop for move up and minimize
reset_timestep 		0
variable 			m loop 400
label				mysecondloop
print				"-------------loop $m-----------------------"
fix 				6 cut move linear 0.0 0.0 0.1 units box
fix					def2 all print 1 "${p0} ${p1} ${p2} ${p3} " append ${fn}.up.txt screen no
timestep 			1
thermo				1
thermo_style		custom step temp c_Tsubm etotal pe ke f_3[1] f_3[2] f_3[3]
dump				1 all custom 1 ${fn}.up.$m.lammpstrj id type x y z fx fy fz c_1 c_2
run 				1
unfix				def2
unfix				6
undump				1
timestep			1
thermo_style		custom step etotal pe ke c_Tsubm
thermo				10
minimize			${miniacc} ${miniacc} 10000 1000000
next 				m
jump				SELF mysecondloop

write_restart       restart.${fn}.moveup

unfix				1
unfix				2
unfix				3
unfix				4
#unfix				5

write_data			data.${fn}.done
print				"all done"
