# in files for asphalt/quartz interface model
# by ZHAODU @ Tongji University
# 13 Dec 2017
# Forcefield PCFF
echo				screen
log					log.systemmodeling.txt
# ----- Variables -------------------------------------------
variable			fn string system	        		# filename
variable			asphalt index data.asphalt			# data file of asphalt
variable 		    quartz index data.quartz			# data file of quartz
variable			cutoff equal 15.5
variable			miniacc	equal 1.0e-20

# ----- Initialization --------------------------------------
dimension			3
units				real
boundary			p p p
atom_style			full

# ----- Atom and forcefield information ---------------
pair_style			lj/class2/coul/long ${cutoff}
bond_style			class2
angle_style			class2
dihedral_style		class2
improper_style		class2
kspace_style		ewald 1.0e-6

read_data			${quartz} extra/atom/types 17 &
					extra/bond/types 37 &
					extra/angle/types 97 &
					extra/dihedral/types 220 &
					extra/improper/types 83 &
					extra/bond/per/atom 100 &
					extra/angle/per/atom 100 &
					extra/dihedral/per/atom 100 &
					extra/improper/per/atom 100 &
					extra/special/per/atom 100
change_box          all z final -0.079000 140 units box
read_data			${asphalt} add append offset 2 0 0 0 0 shift -30 -30.093036 35

neighbor			2.0 bin 
neigh_modify		every 1 delay 0 check yes
fix					1 all nve/noforce
# ---- Write data -----------------------------
write_data			data.system
print				"all done"

