# in file for bulk alpha-quartz modeling
# lattice information from Material studio 
# by ZHAODU @ Tongji University 
# 2017.11.29
echo				screen
dimension			3
units				real
boundary			p p p
atom_style			atomic

lattice				custom 1 &
					a1 4.252181183146 -2.454997950732 0.0 &
					a2 0.0 4.909995901465 0.0 & 
					a3 0.0 0.0 5.402 &
					basis 0.0 0.519219 0.333333 & 
					basis 0.26441 0.849821 0.449833 &
					basis 0.150179 0.414589 0.116499 &
					basis 0.480781 0.480781 0.0 & 
					basis 0.585411 0.73559 0.783166 & 
					basis 0.414589 0.150179 0.883501 & 
					basis 0.519219 0.0 0.666667 & 
					basis 0.73559 0.585411 0.216834 & 
					basis 0.849821 0.26441 0.550167 

# modeling of bulk quartz
region				1 block -20 20 -20 20 0 30 units box

# creating box using defined region 1
create_box			2 1 
create_atoms		2 region 1 units box &
					basis 1 1 & 
					basis 2 2 &
					basis 3 2 &
					basis 4 1 &
					basis 5 2 &
					basis 6 2 &
					basis 7 1 &
					basis 8 2 &
					basis 9 2
mass                1 28.0855                                    
mass            	2 15.9994

neighbor			0.3 bin
neigh_modify		delay 10 check yes every 1 exclude type 1 1 
pair_style			soft 0.1
pair_coeff			* * 0.0

fix					1 all nve/noforce
write_data			data.quartz
